nN = 5;
nR = 15;
nH = 1;

a = [[20, 6, 10, 9, 8, 12, 23, 7, 9, 16, 12, 14, 18, 17, 7], [17, 24, 24, 19, 7, 6, 25, 16, 7, 12, 25, 13, 16, 18, 12], [23, 9, 11, 13, 18, 10, 14, 9, 8, 8, 15, 25, 24, 12, 22], [20, 16, 15, 22, 8, 23, 19, 20, 24, 7, 9, 8, 18, 6, 23], [22, 16, 16, 9, 11, 14, 5, 17, 19, 24, 12, 21, 8, 24, 20]];
c = [[[0, 0, 0, 0, 0, 0, 0, 0, 0, 0, 0, 0, 0, 0, 0], [35, 40, 46, 37, 47, 34, 40, 35, 39, 44, 40, 33, 48, 43, 41], [30, 45, 50, 49, 38, 46, 44, 31, 48, 42, 36, 46, 37, 40, 47], [44, 43, 42, 46, 48, 33, 44, 37, 32, 32, 42, 39, 36, 37, 40], [35, 49, 48, 40, 35, 41, 31, 41, 42, 42, 41, 31, 41, 31, 35]], [[0, 0, 0, 0, 0, 0, 0, 0, 0, 0, 0, 0, 0, 0, 0], [0, 0, 0, 0, 0, 0, 0, 0, 0, 0, 0, 0, 0, 0, 0], [43, 32, 40, 38, 37, 48, 43, 41, 37, 34, 42, 40, 35, 47, 38], [42, 45, 42, 39, 33, 45, 35, 36, 31, 30, 33, 42, 49, 41, 30], [38, 46, 37, 39, 45, 40, 47, 35, 35, 30, 45, 37, 31, 33, 43]], [[0, 0, 0, 0, 0, 0, 0, 0, 0, 0, 0, 0, 0, 0, 0], [0, 0, 0, 0, 0, 0, 0, 0, 0, 0, 0, 0, 0, 0, 0], [0, 0, 0, 0, 0, 0, 0, 0, 0, 0, 0, 0, 0, 0, 0], [43, 30, 36, 32, 50, 44, 49, 48, 30, 41, 44, 34, 45, 31, 38], [32, 48, 34, 49, 44, 50, 37, 31, 35, 34, 34, 37, 48, 45, 41]], [[0, 0, 0, 0, 0, 0, 0, 0, 0, 0, 0, 0, 0, 0, 0], [0, 0, 0, 0, 0, 0, 0, 0, 0, 0, 0, 0, 0, 0, 0], [0, 0, 0, 0, 0, 0, 0, 0, 0, 0, 0, 0, 0, 0, 0], [0, 0, 0, 0, 0, 0, 0, 0, 0, 0, 0, 0, 0, 0, 0], [42, 32, 30, 38, 39, 50, 36, 42, 42, 31, 45, 30, 38, 45, 31]], [[0, 0, 0, 0, 0, 0, 0, 0, 0, 0, 0, 0, 0, 0, 0], [0, 0, 0, 0, 0, 0, 0, 0, 0, 0, 0, 0, 0, 0, 0], [0, 0, 0, 0, 0, 0, 0, 0, 0, 0, 0, 0, 0, 0, 0], [0, 0, 0, 0, 0, 0, 0, 0, 0, 0, 0, 0, 0, 0, 0], [0, 0, 0, 0, 0, 0, 0, 0, 0, 0, 0, 0, 0, 0, 0]]];
Q = [[40], [31], [41], [39], [28]];

q = [[[17], [14], [19], [23], [18], [9], [23], [13], [20], [11], [10], [16], [20], [12], [24]], [[5], [6], [12], [14], [5], [25], [18], [21], [10], [10], [12], [20], [18], [6], [8]], [[5], [13], [25], [19], [22], [20], [16], [6], [21], [23], [5], [11], [22], [23], [23]], [[22], [6], [25], [19], [7], [15], [18], [21], [9], [18], [23], [21], [8], [19], [9]], [[6], [17], [12], [7], [16], [10], [6], [13], [13], [7], [16], [13], [23], [11], [5]]];
p = [0.97, 0.57, 0.8, 0.88, 0.92, 0.68, 0.34, 0.09, 0.63, 0.18, 0.46, 0.65, 0.47, 0.94, 0.68];
